c preprocessed version of pr144.tsp, 118 vertices, 334 edges
p td 118 334
1 0
31 0
113 0
0 23
0 24
0 25
0 26
0 27
0 28
0 29
0 30
20 0
21 0
19 0
2 1
111 1
1 31
19 1
3 2
2 32
2 111
19 2
4 3
3 33
3 32
19 3
5 4
110 4
4 33
4 34
18 4
19 4
6 5
7 5
5 110
5 35
5 109
5 8
18 5
6 7
6 17
18 6
7 8
7 17
16 7
15 7
9 8
44 8
109 8
8 36
8 37
8 38
8 39
8 40
8 41
8 42
8 43
15 8
10 9
108 9
9 44
15 9
10 11
14 10
10 108
15 10
11 12
14 11
108 11
44 11
11 13
11 45
13 12
12 46
12 45
85 12
87 12
14 13
87 13
15 14
87 14
16 15
87 15
86 15
16 17
86 16
18 17
18 19
18 114
19 20
19 114
20 21
114 20
21 22
21 112
21 113
114 21
22 23
22 59
22 112
23 24
112 23
113 23
23 59
23 58
23 57
24 25
24 57
25 26
25 57
26 27
26 57
27 28
27 57
28 29
28 57
29 30
29 57
31 30
30 57
30 102
31 32
111 31
31 102
31 56
32 33
111 32
32 56
32 103
33 34
33 103
34 35
110 34
34 103
35 36
110 35
35 109
35 103
36 37
109 36
103 36
104 36
105 36
106 36
55 36
36 54
36 53
37 38
37 53
38 39
38 53
39 40
39 53
40 41
40 53
41 42
41 53
42 43
42 53
44 43
43 53
43 107
44 45
108 44
44 107
46 45
45 53
107 45
47 45
45 52
45 48
45 49
45 51
45 50
46 47
85 46
47 48
47 75
85 47
48 49
48 75
49 50
49 74
49 75
50 51
74 50
50 73
51 52
51 73
51 88
52 53
52 88
53 54
107 53
53 88
55 54
64 54
54 65
88 54
54 97
54 70
54 71
72 54
56 55
106 55
55 63
55 64
56 57
102 56
103 56
104 56
105 56
56 100
56 106
56 98
56 63
57 58
102 57
100 57
57 99
57 101
61 57
58 59
101 58
60 58
60 59
61 60
60 101
96 60
61 62
61 99
61 93
61 101
92 61
96 61
63 62
64 62
98 62
99 62
62 93
62 94
62 66
62 65
64 63
63 98
64 65
65 66
97 65
69 65
65 68
66 67
66 94
66 68
68 67
67 94
67 95
92 67
91 67
90 67
69 68
90 68
70 69
97 69
90 69
71 70
97 70
89 70
90 70
72 71
89 71
72 73
72 88
72 83
89 72
74 73
88 73
73 83
73 82
73 77
73 76
74 75
74 76
75 76
81 75
85 75
76 77
76 79
81 76
80 76
77 78
77 82
77 79
79 78
78 82
78 84
80 78
80 79
81 80
83 82
82 84
83 84
85 86
85 87
87 86
89 90
89 91
91 90
91 92
91 96
92 93
92 95
92 96
93 94
93 95
94 95
98 99
98 100
100 99
103 104
104 105
105 106
112 113
115 72
115 78
115 83
115 84
115 117
115 116
116 78
116 80
116 81
117 116
117 72
117 89
